Ga  N                                   
    1.000000000000000     
     9.7969041899999993    0.0000000000000000    0.0000000000000000
     0.0000000000000000   15.9361480899999997   -1.4085698000000000
     0.0000000000000000    0.0000000000000000   30.2842506399999998
   Ga   N 
    48    48
Selective dynamics
Direct
  0.0000056405923256  0.2507517768385962  0.6045583736421297   T   T   T
  0.0000000000000000  0.2056515399999981  0.4218750000000000   F   F   F
  0.0000000000000000  0.0494015399999981  0.4843750000000000   F   F   F
  0.0000107435903157  0.3871844583564524  0.5496427466423537   T   T   T
  0.1666666699999979  0.3775265399999981  0.4531250000000000   F   F   F
  0.1666666699999979  0.2212765399999981  0.5156250000000000   F   F   F
  0.1666683372511190  0.0657717785357355  0.5726956287660185   T   T   T
  0.1666666699999979  0.0337765399999981  0.3906250000000000   F   F   F
  0.0000004841461486  0.7506612181269327  0.6045505521605401   T   T   T
  0.0000000000000000  0.7056515399999981  0.4218750000000000   F   F   F
  0.0000000000000000  0.5494015399999981  0.4843750000000000   F   F   F
 -0.0000115175107646  0.8871990217611029  0.5496551191994984   T   T   T
  0.1666666699999979  0.8775265399999981  0.4531250000000000   F   F   F
  0.1666666699999979  0.7212765399999981  0.5156250000000000   F   F   F
  0.1666847649011761  0.5657611508209095  0.5726895152255421   T   T   T
  0.1666666699999979  0.5337765399999981  0.3906250000000000   F   F   F
  0.3333260474706010  0.2507591103811790  0.6045602505975516   T   T   T
  0.3333333300000021  0.2056515399999981  0.4218750000000000   F   F   F
  0.3333333300000021  0.0494015399999981  0.4843750000000000   F   F   F
  0.3333277419301100  0.3871712187341219  0.5496397454968818   T   T   T
  0.5000000000000000  0.3775265399999981  0.4531250000000000   F   F   F
  0.5000000000000000  0.2212765399999981  0.5156250000000000   F   F   F
  0.4999969193681017  0.0657816807497111  0.5726967479987133   T   T   T
  0.5000000000000000  0.0337765399999981  0.3906250000000000   F   F   F
  0.3333490769851539  0.7507953463170409  0.6045533607605401   T   T   T
  0.3333333300000021  0.7056515399999981  0.4218750000000000   F   F   F
  0.3333333300000021  0.5494015399999981  0.4843750000000000   F   F   F
  0.3333335792876183  0.8872110795403453  0.5496413534238395   T   T   T
  0.5000000000000000  0.8775265399999981  0.4531250000000000   F   F   F
  0.5000000000000000  0.7212765399999981  0.5156250000000000   F   F   F
  0.4999830583127584  0.5657701906850403  0.5726966905876120   T   T   T
  0.5000000000000000  0.5337765399999981  0.3906250000000000   F   F   F
  0.6666711794947677  0.2507665817486899  0.6045568856769609   T   T   T
  0.6666666699999979  0.2056515399999981  0.4218750000000000   F   F   F
  0.6666666699999979  0.0494015399999981  0.4843750000000000   F   F   F
  0.6666635702302982  0.3871620687079257  0.5496393297902340   T   T   T
  0.8333333300000021  0.3775265399999981  0.4531250000000000   F   F   F
  0.8333333300000021  0.2212765399999981  0.5156250000000000   F   F   F
  0.8333367152269237  0.0657809579769539  0.5726987893943907   T   T   T
  0.8333333300000021  0.0337765399999981  0.3906250000000000   F   F   F
  0.6666689148022859  0.7507108980867160  0.6045600337083020   T   T   T
  0.6666666699999979  0.7056515399999981  0.4218750000000000   F   F   F
  0.6666666699999979  0.5494015399999981  0.4843750000000000   F   F   F
  0.6666772595023389  0.8872017734628546  0.5496522161371094   T   T   T
  0.8333333300000021  0.8775265399999981  0.4531250000000000   F   F   F
  0.8333333300000021  0.7212765399999981  0.5156250000000000   F   F   F
  0.8333255789244511  0.5657355846239092  0.5726837235477190   T   T   T
  0.8333333300000021  0.5337765399999981  0.3906250000000000   F   F   F
  0.1666666699999979  0.3462765399999981  0.5156250000000000   F   F   F
  0.1666776349291181  0.1862546932307228  0.5850381444942775   T   T   T
  0.1666666699999979  0.1587765399999981  0.3906250000000000   F   F   F
  0.1666666699999979  0.0025265399999981  0.4531250000000000   F   F   F
  0.0000000000000000  0.1744015399999981  0.4843750000000000   F   F   F
  0.0000017890004778  0.0150703136057493  0.5491252225810188   T   T   T
  0.0000313693239781  0.3673605174180737  0.6125063159057567   T   T   T
  0.0000000000000000  0.3306515399999981  0.4218750000000000   F   F   F
  0.1666666699999979  0.8462765399999981  0.5156250000000000   F   F   F
  0.1667106444965326  0.6862470773861199  0.5850364523614449   T   T   T
  0.1666666699999979  0.6587765399999981  0.3906250000000000   F   F   F
  0.1666666699999979  0.5025265399999981  0.4531250000000000   F   F   F
  0.0000000000000000  0.6744015399999981  0.4843750000000000   F   F   F
  0.0000036695887356  0.5150673905014271  0.5491086553893501   T   T   T
 -0.0000371275764355  0.8672819406409629  0.6125111311812358   T   T   T
  0.0000000000000000  0.8306515399999981  0.4218750000000000   F   F   F
  0.5000000000000000  0.3462765399999981  0.5156250000000000   F   F   F
  0.4999869377722885  0.1862614812173933  0.5850380229419694   T   T   T
  0.5000000000000000  0.1587765399999981  0.3906250000000000   F   F   F
  0.5000000000000000  0.0025265399999981  0.4531250000000000   F   F   F
  0.3333333300000021  0.1744015399999981  0.4843750000000000   F   F   F
  0.3333401525691340  0.0150807151531920  0.5491095613648638   T   T   T
  0.3333040272398703  0.3673758456550965  0.6125022916121512   T   T   T
  0.3333333300000021  0.3306515399999981  0.4218750000000000   F   F   F
  0.5000000000000000  0.8462765399999981  0.5156250000000000   F   F   F
  0.4999804025218545  0.6862551532021661  0.5850397762502850   T   T   T
  0.5000000000000000  0.6587765399999981  0.3906250000000000   F   F   F
  0.5000000000000000  0.5025265399999981  0.4531250000000000   F   F   F
  0.3333333300000021  0.6744015399999981  0.4843750000000000   F   F   F
  0.3333455622413449  0.5150807555528718  0.5491088004969573   T   T   T
  0.3333286384785294  0.8674052115268943  0.6124795978654396   T   T   T
  0.3333333300000021  0.8306515399999981  0.4218750000000000   F   F   F
  0.8333333300000021  0.3462765399999981  0.5156250000000000   F   F   F
  0.8333374311371887  0.1862608541640377  0.5850426064736164   T   T   T
  0.8333333300000021  0.1587765399999981  0.3906250000000000   F   F   F
  0.8333333300000021  0.0025265399999981  0.4531250000000000   F   F   F
  0.6666666699999979  0.1744015399999981  0.4843750000000000   F   F   F
  0.6666599090331503  0.0150876624086927  0.5491228529488470   T   T   T
  0.6666631992041653  0.3673704901691333  0.6125038706819614   T   T   T
  0.6666666699999979  0.3306515399999981  0.4218750000000000   F   F   F
  0.8333333300000021  0.8462765399999981  0.5156250000000000   F   F   F
  0.8333173796271320  0.6861996443487939  0.5850369788277853   T   T   T
  0.8333333300000021  0.6587765399999981  0.3906250000000000   F   F   F
  0.8333333300000021  0.5025265399999981  0.4531250000000000   F   F   F
  0.6666666699999979  0.6744015399999981  0.4843750000000000   F   F   F
  0.6666550640955113  0.5150699775829378  0.5491057810042587   T   T   T
  0.6667087280815250  0.8673070789810406  0.6125206578558986   T   T   T
  0.6666666699999979  0.8306515399999981  0.4218750000000000   F   F   F
 
  0.00000000E+00  0.00000000E+00  0.00000000E+00
  0.00000000E+00  0.00000000E+00  0.00000000E+00
  0.00000000E+00  0.00000000E+00  0.00000000E+00
  0.00000000E+00  0.00000000E+00  0.00000000E+00
  0.00000000E+00  0.00000000E+00  0.00000000E+00
  0.00000000E+00  0.00000000E+00  0.00000000E+00
  0.00000000E+00  0.00000000E+00  0.00000000E+00
  0.00000000E+00  0.00000000E+00  0.00000000E+00
  0.00000000E+00  0.00000000E+00  0.00000000E+00
  0.00000000E+00  0.00000000E+00  0.00000000E+00
  0.00000000E+00  0.00000000E+00  0.00000000E+00
  0.00000000E+00  0.00000000E+00  0.00000000E+00
  0.00000000E+00  0.00000000E+00  0.00000000E+00
  0.00000000E+00  0.00000000E+00  0.00000000E+00
  0.00000000E+00  0.00000000E+00  0.00000000E+00
  0.00000000E+00  0.00000000E+00  0.00000000E+00
  0.00000000E+00  0.00000000E+00  0.00000000E+00
  0.00000000E+00  0.00000000E+00  0.00000000E+00
  0.00000000E+00  0.00000000E+00  0.00000000E+00
  0.00000000E+00  0.00000000E+00  0.00000000E+00
  0.00000000E+00  0.00000000E+00  0.00000000E+00
  0.00000000E+00  0.00000000E+00  0.00000000E+00
  0.00000000E+00  0.00000000E+00  0.00000000E+00
  0.00000000E+00  0.00000000E+00  0.00000000E+00
  0.00000000E+00  0.00000000E+00  0.00000000E+00
  0.00000000E+00  0.00000000E+00  0.00000000E+00
  0.00000000E+00  0.00000000E+00  0.00000000E+00
  0.00000000E+00  0.00000000E+00  0.00000000E+00
  0.00000000E+00  0.00000000E+00  0.00000000E+00
  0.00000000E+00  0.00000000E+00  0.00000000E+00
  0.00000000E+00  0.00000000E+00  0.00000000E+00
  0.00000000E+00  0.00000000E+00  0.00000000E+00
  0.00000000E+00  0.00000000E+00  0.00000000E+00
  0.00000000E+00  0.00000000E+00  0.00000000E+00
  0.00000000E+00  0.00000000E+00  0.00000000E+00
  0.00000000E+00  0.00000000E+00  0.00000000E+00
  0.00000000E+00  0.00000000E+00  0.00000000E+00
  0.00000000E+00  0.00000000E+00  0.00000000E+00
  0.00000000E+00  0.00000000E+00  0.00000000E+00
  0.00000000E+00  0.00000000E+00  0.00000000E+00
  0.00000000E+00  0.00000000E+00  0.00000000E+00
  0.00000000E+00  0.00000000E+00  0.00000000E+00
  0.00000000E+00  0.00000000E+00  0.00000000E+00
  0.00000000E+00  0.00000000E+00  0.00000000E+00
  0.00000000E+00  0.00000000E+00  0.00000000E+00
  0.00000000E+00  0.00000000E+00  0.00000000E+00
  0.00000000E+00  0.00000000E+00  0.00000000E+00
  0.00000000E+00  0.00000000E+00  0.00000000E+00
  0.00000000E+00  0.00000000E+00  0.00000000E+00
  0.00000000E+00  0.00000000E+00  0.00000000E+00
  0.00000000E+00  0.00000000E+00  0.00000000E+00
  0.00000000E+00  0.00000000E+00  0.00000000E+00
  0.00000000E+00  0.00000000E+00  0.00000000E+00
  0.00000000E+00  0.00000000E+00  0.00000000E+00
  0.00000000E+00  0.00000000E+00  0.00000000E+00
  0.00000000E+00  0.00000000E+00  0.00000000E+00
  0.00000000E+00  0.00000000E+00  0.00000000E+00
  0.00000000E+00  0.00000000E+00  0.00000000E+00
  0.00000000E+00  0.00000000E+00  0.00000000E+00
  0.00000000E+00  0.00000000E+00  0.00000000E+00
  0.00000000E+00  0.00000000E+00  0.00000000E+00
  0.00000000E+00  0.00000000E+00  0.00000000E+00
  0.00000000E+00  0.00000000E+00  0.00000000E+00
  0.00000000E+00  0.00000000E+00  0.00000000E+00
  0.00000000E+00  0.00000000E+00  0.00000000E+00
  0.00000000E+00  0.00000000E+00  0.00000000E+00
  0.00000000E+00  0.00000000E+00  0.00000000E+00
  0.00000000E+00  0.00000000E+00  0.00000000E+00
  0.00000000E+00  0.00000000E+00  0.00000000E+00
  0.00000000E+00  0.00000000E+00  0.00000000E+00
  0.00000000E+00  0.00000000E+00  0.00000000E+00
  0.00000000E+00  0.00000000E+00  0.00000000E+00
  0.00000000E+00  0.00000000E+00  0.00000000E+00
  0.00000000E+00  0.00000000E+00  0.00000000E+00
  0.00000000E+00  0.00000000E+00  0.00000000E+00
  0.00000000E+00  0.00000000E+00  0.00000000E+00
  0.00000000E+00  0.00000000E+00  0.00000000E+00
  0.00000000E+00  0.00000000E+00  0.00000000E+00
  0.00000000E+00  0.00000000E+00  0.00000000E+00
  0.00000000E+00  0.00000000E+00  0.00000000E+00
  0.00000000E+00  0.00000000E+00  0.00000000E+00
  0.00000000E+00  0.00000000E+00  0.00000000E+00
  0.00000000E+00  0.00000000E+00  0.00000000E+00
  0.00000000E+00  0.00000000E+00  0.00000000E+00
  0.00000000E+00  0.00000000E+00  0.00000000E+00
  0.00000000E+00  0.00000000E+00  0.00000000E+00
  0.00000000E+00  0.00000000E+00  0.00000000E+00
  0.00000000E+00  0.00000000E+00  0.00000000E+00
  0.00000000E+00  0.00000000E+00  0.00000000E+00
  0.00000000E+00  0.00000000E+00  0.00000000E+00
  0.00000000E+00  0.00000000E+00  0.00000000E+00
  0.00000000E+00  0.00000000E+00  0.00000000E+00
  0.00000000E+00  0.00000000E+00  0.00000000E+00
  0.00000000E+00  0.00000000E+00  0.00000000E+00
  0.00000000E+00  0.00000000E+00  0.00000000E+00
  0.00000000E+00  0.00000000E+00  0.00000000E+00
