Ga  N 
 1.0000000000000000
     9.7969041899999993    0.0000000000000000   -0.0000000000000000
    -0.0000000000000000   15.9361480899999997   -1.4085698000000000
     0.0000000000000000    0.0000000000000000   30.2842506399999998
 Ga  N  
  48  48
Selective dynamics
Cartesian
  0.0000000000000000  3.7752980241890586 18.1207728789325095   T   T   T
  0.0000000000000000  3.2772933963765585 12.4864936901825079   F   F   F
  0.0000000000000000  0.7872702573140586 14.5993483864325082   F   F   F
  0.0000000000000000  6.2653211632515591 16.0079181826825092   T   T   T
  1.6328173976563471  6.0163188493453088 13.1907785883075075   F   F   F
  1.6328173976563471  3.5262957102828083 15.3036332845575078   F   F   F
  1.6328173976563471  1.0362725712203085 17.4164879808075064   T   T   T
  1.6328173976563471  0.5382679434078086 11.7822087920575083   F   F   F
  0.0000000000000000 11.7433720691890571 17.4164879789325084   T   T   T
  0.0000000000000000 11.2453674413765583 11.7822087901825086   F   F   F
  0.0000000000000000  8.7553443023140574 13.8950634864325071   F   F   F
  0.0000000000000000 14.2333952082515580 15.3036332826825081   T   T   T
  1.6328173976563471 13.9843928943453086 12.4864936883075082   F   F   F
  1.6328173976563471 11.4943697552828077 14.5993483845575085   F   F   F
  1.6328173976563471  9.0043466162203085 16.7122030808075088   T   T   T
  1.6328173976563471  8.5063419884078080 11.0779238920575072   F   F   F
  3.2656346973436525  3.7752980241890586 18.1207728789325095   T   T   T
  3.2656346973436525  3.2772933963765585 12.4864936901825079   F   F   F
  3.2656346973436525  0.7872702573140586 14.5993483864325082   F   F   F
  3.2656346973436525  6.2653211632515591 16.0079181826825092   T   T   T
  4.8984520949999997  6.0163188493453088 13.1907785883075075   F   F   F
  4.8984520949999997  3.5262957102828083 15.3036332845575078   F   F   F
  4.8984520949999997  1.0362725712203085 17.4164879808075064   T   T   T
  4.8984520949999997  0.5382679434078086 11.7822087920575083   F   F   F
  3.2656346973436525 11.7433720691890571 17.4164879789325084   T   T   T
  3.2656346973436525 11.2453674413765583 11.7822087901825086   F   F   F
  3.2656346973436525  8.7553443023140574 13.8950634864325071   F   F   F
  3.2656346973436525 14.2333952082515580 15.3036332826825081   T   T   T
  4.8984520949999997 13.9843928943453086 12.4864936883075082   F   F   F
  4.8984520949999997 11.4943697552828077 14.5993483845575085   F   F   F
  4.8984520949999997  9.0043466162203085 16.7122030808075088   T   T   T
  4.8984520949999997  8.5063419884078080 11.0779238920575072   F   F   F
  6.5312694926563468  3.7752980241890586 18.1207728789325095   T   T   T
  6.5312694926563468  3.2772933963765585 12.4864936901825079   F   F   F
  6.5312694926563468  0.7872702573140586 14.5993483864325082   F   F   F
  6.5312694926563468  6.2653211632515591 16.0079181826825092   T   T   T
  8.1640867923436513  6.0163188493453088 13.1907785883075075   F   F   F
  8.1640867923436513  3.5262957102828083 15.3036332845575078   F   F   F
  8.1640867923436513  1.0362725712203085 17.4164879808075064   T   T   T
  8.1640867923436513  0.5382679434078086 11.7822087920575083   F   F   F
  6.5312694926563468 11.7433720691890571 17.4164879789325084   T   T   T
  6.5312694926563468 11.2453674413765583 11.7822087901825086   F   F   F
  6.5312694926563468  8.7553443023140574 13.8950634864325071   F   F   F
  6.5312694926563468 14.2333952082515580 15.3036332826825081   T   T   T
  8.1640867923436513 13.9843928943453086 12.4864936883075082   F   F   F
  8.1640867923436513 11.4943697552828077 14.5993483845575085   F   F   F
  8.1640867923436513  9.0043466162203085 16.7122030808075088   T   T   T
  8.1640867923436513  8.5063419884078080 11.0779238920575072   F   F   F
  1.6328173976563471  5.5183142215328091 15.1275620595575084   F   F   F
  1.6328173976563471  3.0282910824703086 17.2404167558075088   T   T   T
  1.6328173976563471  2.5302864546578085 11.6061375670575071   F   F   F
  1.6328173976563471  0.0402633155953086 13.7189922633075074   F   F   F
  0.0000000000000000  2.7792887685640584 14.4232771614325070   F   F   F
  0.0000000000000000  0.2892656295015586 16.5361318576825091   T   T   T
  0.0000000000000000  5.7673165354390585 17.9447016539325084   T   T   T
  0.0000000000000000  5.2693119076265589 12.3104224651825085   F   F   F
  1.6328173976563471 13.4863882665328081 14.4232771595575073   F   F   F
  1.6328173976563471 10.9963651274703071 16.5361318558075077   T   T   T
  1.6328173976563471 10.4983604996578084 10.9018526670575078   F   F   F
  1.6328173976563471  8.0083373605953074 13.0147073633075081   F   F   F
  0.0000000000000000 10.7473628135640578 13.7189922614325077   F   F   F
  0.0000000000000000  8.2573396745015586 15.8318469576825080   T   T   T
  0.0000000000000000 13.7353905804390575 17.2404167539325073   T   T   T
  0.0000000000000000 13.2373859526265569 11.6061375651825074   F   F   F
  4.8984520949999997  5.5183142215328091 15.1275620595575084   F   F   F
  4.8984520949999997  3.0282910824703086 17.2404167558075088   T   T   T
  4.8984520949999997  2.5302864546578085 11.6061375670575071   F   F   F
  4.8984520949999997  0.0402633155953086 13.7189922633075074   F   F   F
  3.2656346973436525  2.7792887685640584 14.4232771614325070   F   F   F
  3.2656346973436525  0.2892656295015586 16.5361318576825091   T   T   T
  3.2656346973436525  5.7673165354390585 17.9447016539325084   T   T   T
  3.2656346973436525  5.2693119076265589 12.3104224651825085   F   F   F
  4.8984520949999997 13.4863882665328081 14.4232771595575073   F   F   F
  4.8984520949999997 10.9963651274703071 16.5361318558075077   T   T   T
  4.8984520949999997 10.4983604996578084 10.9018526670575078   F   F   F
  4.8984520949999997  8.0083373605953074 13.0147073633075081   F   F   F
  3.2656346973436525 10.7473628135640578 13.7189922614325077   F   F   F
  3.2656346973436525  8.2573396745015586 15.8318469576825080   T   T   T
  3.2656346973436525 13.7353905804390575 17.2404167539325073   T   T   T
  3.2656346973436525 13.2373859526265569 11.6061375651825074   F   F   F
  8.1640867923436513  5.5183142215328091 15.1275620595575084   F   F   F
  8.1640867923436513  3.0282910824703086 17.2404167558075088   T   T   T
  8.1640867923436513  2.5302864546578085 11.6061375670575071   F   F   F
  8.1640867923436513  0.0402633155953086 13.7189922633075074   F   F   F
  6.5312694926563468  2.7792887685640584 14.4232771614325070   F   F   F
  6.5312694926563468  0.2892656295015586 16.5361318576825091   T   T   T
  6.5312694926563468  5.7673165354390585 17.9447016539325084   T   T   T
  6.5312694926563468  5.2693119076265589 12.3104224651825085   F   F   F
  8.1640867923436513 13.4863882665328081 14.4232771595575073   F   F   F
  8.1640867923436513 10.9963651274703071 16.5361318558075077   T   T   T
  8.1640867923436513 10.4983604996578084 10.9018526670575078   F   F   F
  8.1640867923436513  8.0083373605953074 13.0147073633075081   F   F   F
  6.5312694926563468 10.7473628135640578 13.7189922614325077   F   F   F
  6.5312694926563468  8.2573396745015586 15.8318469576825080   T   T   T
  6.5312694926563468 13.7353905804390575 17.2404167539325073   T   T   T
  6.5312694926563468 13.2373859526265569 11.6061375651825074   F   F   F
