Si  P                                   
    1.000000000000000     
     8.1536498500000008    0.0000000000000000    0.0000000000000000
    -4.0768249200000000   11.7687798400000005    3.3287136099999999
     0.0000000000000000    0.0000000000000000   39.9445633500000028
   Si   P 
    20    40
Selective dynamics
Direct
  0.3672014300000015  0.7344028600000030  0.5169340500000033   F   F   F
  0.1672014299999987  0.3344028599999973  0.4669340499999990   F   F   F
  0.5907148148801488  0.1417043426542700  0.5641418577131763   T   T   T
  0.9672014300000029  0.9344028599999987  0.4169340500000018   F   F   F
  0.7586326221571942  0.5562073811350862  0.6177711973339003   T   T   T
  0.9672014300000029  0.4344028599999987  0.5419340500000018   F   F   F
  0.7672014300000001  0.0344028600000001  0.4919340499999976   F   F   F
  0.1724517623093752  0.8294134472512469  0.5875561691155646   T   T   T
  0.5672014299999972  0.6344028600000016  0.4419340500000004   F   F   F
  0.3672014300000015  0.2344028600000030  0.3919340500000033   F   F   F
  0.4672014300000029  0.4344028599999987  0.5419340500000018   F   F   F
  0.2672014300000001  0.0344028600000001  0.4919340499999976   F   F   F
  0.6729426645656245  0.8328216501858050  0.5847288021096708   T   T   T
  0.0672014299999972  0.6344028600000016  0.4419340500000004   F   F   F
  0.8672014300000015  0.2344028600000030  0.3919340500000033   F   F   F
  0.2495143100791025  0.5267225722511202  0.6183818053301242   T   T   T
  0.0530883811050094  0.1498605752387235  0.5672441623816216   T   T   T
  0.4672014300000029  0.9344028599999987  0.4169340500000018   F   F   F
  0.8672014300000015  0.7344028600000030  0.5169340500000033   F   F   F
  0.6672014299999987  0.3344028599999973  0.4669340499999990   F   F   F
  0.6801274600000013  0.5779398399999991  0.4973761700000026   F   F   F
  0.4801274599999985  0.1779398400000005  0.4473761699999983   F   F   F
  0.8801274599999971  0.9779398399999977  0.5473761699999997   F   F   F
  0.2801274600000028  0.7779398400000019  0.3973761700000011   F   F   F
  0.0765812293083329  0.3774514950935689  0.5952348086683095   T   T   T
  0.1236644499999997  0.7473288899999986  0.4832604200000006   F   F   F
  0.9236644499999969  0.3473288900000000  0.4332604200000034   F   F   F
  0.3236644500000025  0.1473288899999972  0.5332604199999977   F   F   F
  0.7236644500000011  0.9473288900000014  0.3832604199999992   F   F   F
  0.5118242203541131  0.5438220324266462  0.5857956430718961   T   T   T
  0.9978123799999992  0.2779398400000019  0.5223761700000011   F   F   F
  0.7978123799999963  0.8779398400000034  0.4723761699999969   F   F   F
  0.1903342221694652  0.6692141693923751  0.5734067478284087   T   T   T
  0.5978123800000006  0.4779398399999977  0.4223761699999997   F   F   F
  0.3978123799999977  0.0779398399999991  0.3723761700000026   F   F   F
  0.2672014300000001  0.5344028600000001  0.4647234299999994   F   F   F
  0.0672014299999972  0.1344028600000016  0.4147234300000022   F   F   F
  0.4672014300000029  0.9344028599999987  0.5147234299999965   F   F   F
  0.7813910719918031  0.7300143988229499  0.6306338945062673   T   T   T
  0.6770767504893743  0.3290982789165802  0.5692879900083840   T   T   T
  0.8542753999999988  0.4908658700000004  0.4864919299999997   F   F   F
  0.6542754000000031  0.0908658700000018  0.4364919300000025   F   F   F
  0.0542754000000016  0.8908658699999989  0.5364919299999968   F   F   F
  0.4542754000000002  0.6908658700000032  0.3864919299999983   F   F   F
  0.2496661293585914  0.2808845373111155  0.5918778797272251   T   T   T
  0.4107384100000004  0.3214768300000017  0.5006076800000017   F   F   F
  0.2107384099999976  0.9214768300000031  0.4506076799999974   F   F   F
  0.6005131757947161  0.7152710560979398  0.5498145652738291   T   T   T
  0.0107384100000019  0.5214768299999974  0.4006076800000002   F   F   F
  0.7920739104950069  0.1102472147555953  0.6055498500167631   T   T   T
  0.5365904800000010  0.7908658699999975  0.4614919300000011   F   F   F
  0.3365904799999981  0.3908658699999989  0.4114919299999968   F   F   F
  0.7365904799999967  0.1908658700000032  0.5114919299999983   F   F   F
  0.0479530349769455  0.8314320869420411  0.6358758704843096   T   T   T
  0.9209766042555418  0.5914301375659455  0.5634209971261701   T   T   T
  0.2672014300000001  0.5344028600000001  0.5191446600000020   F   F   F
  0.0672014299999972  0.1344028600000016  0.4691446599999978   F   F   F
  0.4676919056592281  0.9330277160796036  0.5706159198996661   T   T   T
  0.8672014300000015  0.7344028600000030  0.4191446600000006   F   F   F
  0.7994459971051329  0.2686036228241485  0.6199880174606506   T   T   T
 
  0.00000000E+00  0.00000000E+00  0.00000000E+00
  0.00000000E+00  0.00000000E+00  0.00000000E+00
  0.00000000E+00  0.00000000E+00  0.00000000E+00
  0.00000000E+00  0.00000000E+00  0.00000000E+00
  0.00000000E+00  0.00000000E+00  0.00000000E+00
  0.00000000E+00  0.00000000E+00  0.00000000E+00
  0.00000000E+00  0.00000000E+00  0.00000000E+00
  0.00000000E+00  0.00000000E+00  0.00000000E+00
  0.00000000E+00  0.00000000E+00  0.00000000E+00
  0.00000000E+00  0.00000000E+00  0.00000000E+00
  0.00000000E+00  0.00000000E+00  0.00000000E+00
  0.00000000E+00  0.00000000E+00  0.00000000E+00
  0.00000000E+00  0.00000000E+00  0.00000000E+00
  0.00000000E+00  0.00000000E+00  0.00000000E+00
  0.00000000E+00  0.00000000E+00  0.00000000E+00
  0.00000000E+00  0.00000000E+00  0.00000000E+00
  0.00000000E+00  0.00000000E+00  0.00000000E+00
  0.00000000E+00  0.00000000E+00  0.00000000E+00
  0.00000000E+00  0.00000000E+00  0.00000000E+00
  0.00000000E+00  0.00000000E+00  0.00000000E+00
  0.00000000E+00  0.00000000E+00  0.00000000E+00
  0.00000000E+00  0.00000000E+00  0.00000000E+00
  0.00000000E+00  0.00000000E+00  0.00000000E+00
  0.00000000E+00  0.00000000E+00  0.00000000E+00
  0.00000000E+00  0.00000000E+00  0.00000000E+00
  0.00000000E+00  0.00000000E+00  0.00000000E+00
  0.00000000E+00  0.00000000E+00  0.00000000E+00
  0.00000000E+00  0.00000000E+00  0.00000000E+00
  0.00000000E+00  0.00000000E+00  0.00000000E+00
  0.00000000E+00  0.00000000E+00  0.00000000E+00
  0.00000000E+00  0.00000000E+00  0.00000000E+00
  0.00000000E+00  0.00000000E+00  0.00000000E+00
  0.00000000E+00  0.00000000E+00  0.00000000E+00
  0.00000000E+00  0.00000000E+00  0.00000000E+00
  0.00000000E+00  0.00000000E+00  0.00000000E+00
  0.00000000E+00  0.00000000E+00  0.00000000E+00
  0.00000000E+00  0.00000000E+00  0.00000000E+00
  0.00000000E+00  0.00000000E+00  0.00000000E+00
  0.00000000E+00  0.00000000E+00  0.00000000E+00
  0.00000000E+00  0.00000000E+00  0.00000000E+00
  0.00000000E+00  0.00000000E+00  0.00000000E+00
  0.00000000E+00  0.00000000E+00  0.00000000E+00
  0.00000000E+00  0.00000000E+00  0.00000000E+00
  0.00000000E+00  0.00000000E+00  0.00000000E+00
  0.00000000E+00  0.00000000E+00  0.00000000E+00
  0.00000000E+00  0.00000000E+00  0.00000000E+00
  0.00000000E+00  0.00000000E+00  0.00000000E+00
  0.00000000E+00  0.00000000E+00  0.00000000E+00
  0.00000000E+00  0.00000000E+00  0.00000000E+00
  0.00000000E+00  0.00000000E+00  0.00000000E+00
  0.00000000E+00  0.00000000E+00  0.00000000E+00
  0.00000000E+00  0.00000000E+00  0.00000000E+00
  0.00000000E+00  0.00000000E+00  0.00000000E+00
  0.00000000E+00  0.00000000E+00  0.00000000E+00
  0.00000000E+00  0.00000000E+00  0.00000000E+00
  0.00000000E+00  0.00000000E+00  0.00000000E+00
  0.00000000E+00  0.00000000E+00  0.00000000E+00
  0.00000000E+00  0.00000000E+00  0.00000000E+00
  0.00000000E+00  0.00000000E+00  0.00000000E+00
  0.00000000E+00  0.00000000E+00  0.00000000E+00
