INCAR created by Atomic Simulation Environment
 ENCUT = 350.000000
 SIGMA = 0.050000
 EDIFFG = -3.00e-02
 SYMPREC = 1.00e-10
 GGA = RP
 IBRION = 2
 ISIF = 0
 ISMEAR = 0
 ISYM = 0
 NSW = 2000
 NCORE = 4
 LAECHG = .TRUE.
 LWAVE = .FALSE.
 LREAL = Auto
