Si  P 
 1.0000000000000000
     8.1536498500000008    0.0000000000000000   -0.0000000000000000
    -4.0768249200000000   11.7687798400000005    3.3287136099999999
     0.0000000000000000    0.0000000000000000   39.9445633500000028
 Si  P  
  20  40
Selective dynamics
Cartesian
  0.0000000036720148  8.6430255732063426 23.0933217033019957   F   F   F
  0.0000000016720145  3.9355136372063431 19.7646080918019926   F   F   F
  4.0768249256720148  1.5817576692063426 23.0933217048019941   T   T   T
  4.0768249296720160 10.9967815412063423 19.7646080903019943   F   F   F
  4.0768249276720150  6.2892696052063428 26.4220353163019936   T   T   T
  6.1152373896720151  5.1123916212063429 23.0933217040519914   F   F   F
  6.1152373876720150  0.4048796852063424 19.7646080925519954   F   F   F
 -2.0384124583279855  9.8199035572063433 26.4220353155519945   T   T   T
  2.0384124656720148  7.4661475892063427 19.7646080910519935   F   F   F
  2.0384124636720147  2.7586356532063423 16.4358944795519939   F   F   F
  2.0384124646720143  5.1123916212063429 23.0933217040519914   F   F   F
  2.0384124626720146  0.4048796852063424 19.7646080925519954   F   F   F
  2.0384124666720145  9.8199035572063433 26.4220353155519945   T   T   T
 -2.0384124593279855  7.4661475892063427 19.7646080910519935   F   F   F
  6.1152373886720151  2.7586356532063423 16.4358944795519939   F   F   F
  0.0000000026720146  6.2892696052063428 26.4220353163019936   T   T   T
  0.0000000006720144  1.5817576692063426 23.0933217048019941   T   T   T
  0.0000000046720145 10.9967815412063423 19.7646080903019943   F   F   F
  4.0768249286720151  8.6430255732063426 23.0933217033019957   F   F   F
  4.0768249266720140  3.9355136372063431 19.7646080918019926   F   F   F
  3.1893616202370692  6.8016467377248260 21.7912701425145947   F   F   F
  3.1893616182370685  2.0941348017248256 18.4625565310145952   F   F   F
  3.1893616222370689 11.5091586737248264 25.1199837540145943   F   F   F
 -0.8874633037629319  9.1554027057248266 18.4625565295145933   F   F   F
 -0.8874633057629319  4.4478907697248262 25.1199837555145926   T   T   T
 -2.0384124179951062  8.7951491744815780 21.7912703085268014   F   F   F
  6.1152374300048944  4.0876372384815776 18.4625566970268018   F   F   F
  2.0384125040048939  1.7338812704815776 21.7912703100267997   F   F   F
  2.0384125080048943 11.1489051424815777 18.4625566955267999   F   F   F
  2.0384125060048937  6.4413932064815773 25.1199839215268028   T   T   T
  7.0027006965423313  3.2710127857248255 21.7912701432645939   F   F   F
  2.9258757745423303 10.3322806897248256 21.7912701417645920   F   F   F
 -1.1509491514576695  7.9785247217248259 25.1199837547645899   T   T   T
  2.9258757725423310  5.6247687537248261 18.4625565302645924   F   F   F
  2.9258757705423308  0.9172568177248256 15.1338429187645929   F   F   F
  0.0000000026720146  6.2892696052063428 20.3420485631692145   F   F   F
  0.0000000006720144  1.5817576692063426 17.0133349516692149   F   F   F
  0.0000000046720145 10.9967815412063423 23.6707621746692141   F   F   F
  4.0768249286720151  8.6430255732063426 26.9994757876692155   T   T   T
  4.0768249266720140  3.9355136372063431 23.6707621761692160   T   T   T
  4.9642882758752105  5.7768923550000606 21.0666596193022571   F   F   F
  4.9642882738752094  1.0693804190000609 17.7379460078022575   F   F   F
 -3.1893615721247901 10.4844042910000610 24.3953732308022566   F   F   F
  0.8874633518752100  8.1306483230000612 17.7379460063022556   F   F   F
  0.8874633498752095  3.4231363870000613 24.3953732323022585   T   T   T
  2.0384124233391350  3.7833900359311072 21.0666594865771870   F   F   F
 -2.0384124986608652 10.8446579399311087 21.0666594850771851   F   F   F
  2.0384124253391351  8.4909019719311072 24.3953730980771866   T   T   T
 -2.0384125006608649  6.1371460039311074 17.7379458735771856   F   F   F
  6.1152373473391357  1.4296340679311073 24.3953730995771849   T   T   T
  1.1509491995699483  9.3075263070000602 21.0666596185522579   F   F   F
  1.1509491975699480  4.6000143710000607 17.7379460070522583   F   F   F
  5.2277741215699480  2.2462584030000610 21.0666596200522598   F   F   F
 -2.9258757244300524 11.6612822750000618 27.7240868430522589   T   T   T
  5.2277741235699482  6.9537703390000614 24.3953732315522558   T   T   T
  0.0000000026720146  6.2892696052063428 22.5158808324891382   F   F   F
  0.0000000006720144  1.5817576692063426 19.1871672209891351   F   F   F
  0.0000000046720145 10.9967815412063423 25.8445944439891342   T   T   T
  4.0768249286720151  8.6430255732063426 19.1871672194891367   F   F   F
  4.0768249266720140  3.9355136372063431 25.8445944454891361   T   T   T
